ilp_joint_2/output/melting_ilp.lp
Maximize
  0.00377317645827763 Z_30_1_0 + 0.00257259481963756 Z_30_1_1
   + 0.4172546447217766 Z_30_1_2 + 0.00261942587820011 Z_30_1_3
   + 7.5272789769781356e-04 Z_2_1_0 + 0.0027893283573282 Z_2_1_1
   + 0.4581608933232685 Z_2_1_2 + 0.00247578017856933 Z_2_1_3
Subject To
 constraint1_301: Z_30_1_0 + Z_30_1_1 + Z_30_1_2 + Z_30_1_3 <= 1
 constraint1_21: Z_2_1_0 + Z_2_1_1 + Z_2_1_2 + Z_2_1_3 <= 1
 constraint2_300: Z_30_1_0 <= 1
 constraint2_301: Z_30_1_1 <= 1
 constraint2_302: Z_30_1_2 <= 1
 constraint2_303: Z_30_1_3 <= 1
 constraint2_210: <= 1
 constraint2_211: <= 1
 constraint2_212: <= 1
 constraint2_213: <= 1
 constraint2_20: Z_2_1_0 <= 1
 constraint2_21: Z_2_1_1 <= 1
 constraint2_22: Z_2_1_2 <= 1
 constraint2_23: Z_2_1_3 <= 1
Bounds
Binaries
 Z_30_1_0 Z_30_1_1 Z_30_1_2 Z_30_1_3 Z_2_1_0 Z_2_1_1 Z_2_1_2 Z_2_1_3
End
