ilp_joint_2/output/melting_ilp.sol
# Solution for model melting_srl_ilp
# Objective value = 8.7541553804504513e-01
Z_30_1_0 0
Z_30_1_1 0
Z_30_1_2 1
Z_30_1_3 0
Z_2_1_0 0
Z_2_1_1 0
Z_2_1_2 1
Z_2_1_3 0
